solution status: optimal solution found
objective value:                        48.3344677694
C22760                                              1 	(obj:0.1626426671)
C22771                                              1 	(obj:0.8951775671)
C22780                                              1 	(obj:0.0951880691)
C22798                                              1 	(obj:0.1743967141)
C22804                                              1 	(obj:0.2240308117)
C22813                                              1 	(obj:0.5380458692)
C22824                                              1 	(obj:0.3102366784)
C22833                                              1 	(obj:0.4703285567)
C22847                                              1 	(obj:0.0595831161)
C22859                                              1 	(obj:0.3015354605)
C22866                                              1 	(obj:0.0050905568)
C22877                                              1 	(obj:0.1219631267)
C22891                                              1 	(obj:0.6583121533)
C22900                                              1 	(obj:0.5572555583)
C22905                                              1 	(obj:0.4622113364)
C22918                                              1 	(obj:0.0254026473)
C22926                                              1 	(obj:0.7585037621)
C22941                                              1 	(obj:0.0980311654)
C22949                                              1 	(obj:0.6989737479)
C22954                                              1 	(obj:0.4068375656)
C22972                                              1 	(obj:0.872352497)
C22982                                              1 	(obj:0.097392685)
C22992                                              1 	(obj:0.3513241093)
C23005                                              1 	(obj:0.0418657551)
C23020                                              1 	(obj:0.9373781711)
C23034                                              1 	(obj:0.6154109154)
C23050                                              1 	(obj:0.3387244044)
C23058                                              1 	(obj:0.1612085251)
C23069                                              1 	(obj:0.8909996748)
C23078                                              1 	(obj:0.3554286377)
C23090                                              1 	(obj:0.1258193619)
C23103                                              1 	(obj:0.468686392)
C23117                                              1 	(obj:0.363407561)
C23122                                              1 	(obj:0.818630124)
C23132                                              1 	(obj:0.0603255936)
C23146                                              1 	(obj:0.7664960643)
C23152                                              1 	(obj:0.8888759099)
C23170                                              1 	(obj:0.0603890123)
C23185                                              1 	(obj:0.6796394145)
C23195                                              1 	(obj:0.7259751078)
C23207                                              1 	(obj:0.7578579975)
C23215                                              1 	(obj:0.868286483)
C23233                                              1 	(obj:0.4673177834)
C23246                                              1 	(obj:0.6469544185)
C23254                                              1 	(obj:0.5870374636)
C23260                                              1 	(obj:0.4412101052)
C23269                                              1 	(obj:0.1337470663)
C23287                                              1 	(obj:0.5428034066)
C23304                                              1 	(obj:0.5268264167)
C23318                                              1 	(obj:0.3456188768)
C23338                                              1 	(obj:0.7293534324)
C23343                                              1 	(obj:0.8870563765)
C23358                                              1 	(obj:0.5091001019)
C23366                                              1 	(obj:0.3786272488)
C23376                                              1 	(obj:0.5092782497)
C23383                                              1 	(obj:0.7375146403)
C23394                                              1 	(obj:0.301682441)
C23413                                              1 	(obj:0.8251470878)
C23428                                              1 	(obj:0.6607570059)
C23446                                              1 	(obj:0.7027299094)
C23451                                              1 	(obj:0.5954034133)
C23462                                              1 	(obj:0.0673870022)
C23478                                              1 	(obj:0.6467346049)
C23484                                              1 	(obj:0.8666863687)
C23493                                              1 	(obj:0.6683713315)
C23498                                              1 	(obj:0.8420393166)
C23515                                              1 	(obj:0.1453979681)
C23522                                              1 	(obj:0.4548853989)
C23532                                              1 	(obj:0.7176977366)
C23537                                              1 	(obj:0.9468596429)
C23542                                              1 	(obj:0.0832615182)
C23554                                              1 	(obj:0.204821155)
C23571                                              1 	(obj:0.2389583944)
C23582                                              1 	(obj:0.2541661028)
C23592                                              1 	(obj:0.6479983653)
C23597                                              1 	(obj:0.4103782297)
C23602                                              1 	(obj:0.923352436)
C23610                                              1 	(obj:0.67512496)
C23618                                              1 	(obj:0.695613986)
C23630                                              1 	(obj:0.906220052)
C23641                                              1 	(obj:0.8608512129)
C23661                                              1 	(obj:0.0282543837)
C23669                                              1 	(obj:0.4235944537)
C23685                                              1 	(obj:0.6498703889)
C23690                                              1 	(obj:0.7236793161)
C23703                                              1 	(obj:0.9038911201)
C23715                                              1 	(obj:0.2047976322)
C23729                                              1 	(obj:0.4955896464)
C23739                                              1 	(obj:0.8996444972)
C23750                                              1 	(obj:0.1860394122)
C23767                                              1 	(obj:0.0427624187)
C23775                                              1 	(obj:0.4243617373)
C23787                                              1 	(obj:0.1745997198)
C23801                                              1 	(obj:0.033821397)
C23819                                              1 	(obj:0.3940567972)
C23827                                              1 	(obj:0.6353442342)
C23838                                              1 	(obj:0.6444025185)
C23844                                              1 	(obj:0.8564381776)
C23858                                              1 	(obj:0.2816514266)
C23877                                              1 	(obj:0.2764757387)
C23886                                              1 	(obj:0)
C23905                                              1 	(obj:0)
C23926                                              1 	(obj:0)
C23952                                              1 	(obj:0)
C23963                                              1 	(obj:0)
C23989                                              1 	(obj:0)
C24010                                              1 	(obj:0)
C24032                                              1 	(obj:0)
C24045                                              1 	(obj:0)
C24066                                              1 	(obj:0)
C24087                                              1 	(obj:0)
C24108                                              1 	(obj:0)
C24119                                              1 	(obj:0)
C24149                                              1 	(obj:0)
C24174                                              1 	(obj:0)
C24185                                              1 	(obj:0)
C24209                                              1 	(obj:0)
C24237                                              1 	(obj:0)
C24238                                              1 	(obj:0)
C24266                                              1 	(obj:0)
C24280                                              1 	(obj:0)
C24303                                              1 	(obj:0)
C24319                                              1 	(obj:0)
C24342                                              1 	(obj:0)
C24358                                              1 	(obj:0)
C24397                                              1 	(obj:0)
C24408                                              1 	(obj:0)
C24435                                              1 	(obj:0)
C24440                                              1 	(obj:0)
C24465                                              1 	(obj:0)
C24491                                              1 	(obj:0)
C24510                                              1 	(obj:0)
C24519                                              1 	(obj:0)
C24546                                              1 	(obj:0)
C24573                                              1 	(obj:0)
C24581                                              1 	(obj:0)
C24607                                              1 	(obj:0)
C24620                                              1 	(obj:0)
C24638                                              1 	(obj:0)
C24663                                              1 	(obj:0)
C24689                                              1 	(obj:0)
C24710                                              1 	(obj:0)
C24725                                              1 	(obj:0)
C24748                                              1 	(obj:0)
C24776                                              1 	(obj:0)
C24789                                              1 	(obj:0)
C24812                                              1 	(obj:0)
C24836                                              1 	(obj:0)
C24844                                              1 	(obj:0)
C24861                                              1 	(obj:0)
C24878                                              1 	(obj:0)
C24902                                              1 	(obj:0)
C24920                                              1 	(obj:0)
C24939                                              1 	(obj:0)
C24959                                              1 	(obj:0)
C24992                                              1 	(obj:0)
C25015                                              1 	(obj:0)
C25023                                              1 	(obj:0)
C25041                                              1 	(obj:0)
C25066                                              1 	(obj:0)
C25093                                              1 	(obj:0)
C25115                                              1 	(obj:0)
C25133                                              1 	(obj:0)
C25145                                              1 	(obj:0)
C25160                                              1 	(obj:0)
C25190                                              1 	(obj:0)
C25201                                              1 	(obj:0)
C25228                                              1 	(obj:0)
C25255                                              1 	(obj:0)
C25274                                              1 	(obj:0)
C25287                                              1 	(obj:0)
C25310                                              1 	(obj:0)
C25333                                              1 	(obj:0)
C25352                                              1 	(obj:0)
C25375                                              1 	(obj:0)
C25387                                              1 	(obj:0)
C25417                                              1 	(obj:0)
C25432                                              1 	(obj:0)
C25442                                              1 	(obj:0)
C25477                                              1 	(obj:0)
C25488                                              1 	(obj:0)
C25498                                              1 	(obj:0)
C25531                                              1 	(obj:0)
C25541                                              1 	(obj:0)
C25569                                              1 	(obj:0)
C25590                                              1 	(obj:0)
C25612                                              1 	(obj:0)
C25629                                              1 	(obj:0)
C25650                                              1 	(obj:0)
C25661                                              1 	(obj:0)
C25678                                              1 	(obj:0)
C25700                                              1 	(obj:0)
C25736                                              1 	(obj:0)
C25741                                              1 	(obj:0)
C25758                                              1 	(obj:0)
C25796                                              1 	(obj:0)
C25808                                              1 	(obj:0)
C25823                                              1 	(obj:0)
C25853                                              1 	(obj:0)
C25860                                              1 	(obj:0)
C25893                                              1 	(obj:0)
C25894                                              1 	(obj:0)
C25895                                              1 	(obj:0)
C25896                                              1 	(obj:0)
C25897                                              1 	(obj:0)
C25903                                              1 	(obj:0)
C25904                                              1 	(obj:0)
C25905                                              1 	(obj:0)
C25906                                              1 	(obj:0)
C25907                                              1 	(obj:0)
C25918                                              1 	(obj:0)
C25919                                              1 	(obj:0)
C25920                                              1 	(obj:0)
C25921                                              1 	(obj:0)
C25922                                              1 	(obj:0)
C25948                                              1 	(obj:0)
C25949                                              1 	(obj:0)
C25950                                              1 	(obj:0)
C25951                                              1 	(obj:0)
C25952                                              1 	(obj:0)
C25961                                              1 	(obj:0)
C25963                                              1 	(obj:0)
C25966                                              1 	(obj:0)
C25972                                              1 	(obj:0)
C26094                                              1 	(obj:0)
C26095                               1.00000000000001 	(obj:0)
C26096                                              1 	(obj:0)
C26097                                              1 	(obj:0)
C26098                                              1 	(obj:0)
C26099                                              1 	(obj:0)
C26100                                              1 	(obj:0)
C26101                                              1 	(obj:0)
C26102                                              1 	(obj:0)
C26103                                              1 	(obj:0)
C26104                                              1 	(obj:0)
C26105                                              1 	(obj:0)
C26106                                              1 	(obj:0)
C26107                                              1 	(obj:0)
C26108                                              1 	(obj:0)
C26109                                              1 	(obj:0)
C26110                                              1 	(obj:0)
C26111                                              1 	(obj:0)
C26112                                              1 	(obj:0)
C26113                                              1 	(obj:0)
C26262                                              1 	(obj:0)
C26263                                              1 	(obj:0)
C26264                                              1 	(obj:0)
C26265                                              1 	(obj:0)
C27006                                              1 	(obj:0)
C27007                               1.00000000000001 	(obj:0)
C27008                                              1 	(obj:0)
C27009                                              1 	(obj:0)
C27010                                              1 	(obj:0)
C27011                                              1 	(obj:0)
C27012                                              1 	(obj:0)
C27013                                              1 	(obj:0)
C27014                                              1 	(obj:0)
C27015                                              1 	(obj:0)
C27016                                              1 	(obj:0)
C27017                                              1 	(obj:0)
C27018                                              1 	(obj:0)
C27019                                              1 	(obj:0)
C27020                                              1 	(obj:0)
C27021                                              1 	(obj:0)
C27022                                              1 	(obj:0)
C27023                                              1 	(obj:0)
C27024                                              1 	(obj:0)
C27025                                              1 	(obj:0)
C4623                                               1 	(obj:0)
C4826                                               1 	(obj:0)
C5022                                               1 	(obj:0)
C5285                                               1 	(obj:0)
C5581                                               1 	(obj:0)
C5880                                               1 	(obj:0)
C6191                                               1 	(obj:0)
C6358                                               1 	(obj:0)
C6563                                               1 	(obj:0)
C6748                                               1 	(obj:0)
C6994                                               1 	(obj:0)
C7253                                               1 	(obj:0)
C7522                                               1 	(obj:0)
C7629                                               1 	(obj:0)
C7836                                               1 	(obj:0)
C8104                                               1 	(obj:0)
C8230                                               1 	(obj:0)
C8583                                               1 	(obj:0)
C8881                                               1 	(obj:0)
C9086                                               1 	(obj:0)
C9332                                               1 	(obj:0)
C9493                                               1 	(obj:0)
C9848                                               1 	(obj:0)
C10111                                              1 	(obj:0)
C10279                                              1 	(obj:0)
C10392                                              1 	(obj:0)
C10575                                              1 	(obj:0)
C10939                                              1 	(obj:0)
C11267                                              1 	(obj:0)
C11544                                              1 	(obj:0)
C11941                                              1 	(obj:0)
C12045                                              1 	(obj:0)
C12343                                              1 	(obj:0)
C12502                                              1 	(obj:0)
C12702                                              1 	(obj:0)
C12855                                              1 	(obj:0)
C13078                                              1 	(obj:0)
C13446                                              1 	(obj:0)
C13744                                              1 	(obj:0)
C14109                                              1 	(obj:0)
C14216                                              1 	(obj:0)
C14438                                              1 	(obj:0)
C14756                                              1 	(obj:0)
C14868                                              1 	(obj:0)
C15043                                              1 	(obj:0)
C15153                                              1 	(obj:0)
C15484                                              1 	(obj:0)
C15631                                              1 	(obj:0)
C15838                                              1 	(obj:0)
C15937                                              1 	(obj:0)
C16030                                              1 	(obj:0)
C16273                                              1 	(obj:0)
C16616                                              1 	(obj:0)
C16835                                              1 	(obj:0)
C17038                                              1 	(obj:0)
C17130                                              1 	(obj:0)
C17240                                              1 	(obj:0)
C17395                                              1 	(obj:0)
C17545                                              1 	(obj:0)
C17800                                              1 	(obj:0)
C18011                                              1 	(obj:0)
C18401                                              1 	(obj:0)
C18574                                              1 	(obj:0)
C18884                                              1 	(obj:0)
C18992                                              1 	(obj:0)
C19253                                              1 	(obj:0)
C19495                                              1 	(obj:0)
C19772                                              1 	(obj:0)
C19973                                              1 	(obj:0)
C20184                                              1 	(obj:0)
C20521                                              1 	(obj:0)
C20683                                              1 	(obj:0)
C20939                                              1 	(obj:0)
C21204                                              1 	(obj:0)
C21561                                              1 	(obj:0)
C21739                                              1 	(obj:0)
C21951                                              1 	(obj:0)
C22066                                              1 	(obj:0)
C22356                                              1 	(obj:0)
C22723                                              1 	(obj:0)
C0389                                               1 	(obj:0)
C0608                                               1 	(obj:0)
C0789                                               1 	(obj:0)
C1155                                               1 	(obj:0)
C1266                                               1 	(obj:0)
C1452                                               1 	(obj:0)
C1673                                               1 	(obj:0)
C1855                                               1 	(obj:0)
C2128                                               1 	(obj:0)
C2369                                               1 	(obj:0)
C2510                                               1 	(obj:0)
C2731                                               1 	(obj:0)
C3002                                               1 	(obj:0)
C3192                                               1 	(obj:0)
C3297                                               1 	(obj:0)
C3548                                               1 	(obj:0)
C3712                                               1 	(obj:0)
C4020                                               1 	(obj:0)
C4161                                               1 	(obj:0)
C4269                                               1 	(obj:0)
